c description: Perfect Matching Principle on 
c generator: CNFgen (0.9.0)
c copyright: (C) 2012-2020 Massimo Lauria <massimo.lauria@uniroma1.it>
c url: https://massimolauria.net/cnfgen
c
p cnf 60 273
-1 -2 0
1 2 0
-3 -4 0
-3 -5 0
-4 -5 0
3 4 5 0
-6 -7 0
6 7 0
-8 -9 0
-8 -10 0
-8 -11 0
-8 -12 0
-9 -10 0
-9 -11 0
-9 -12 0
-10 -11 0
-10 -12 0
-11 -12 0
8 9 10 11 12 0
-13 -14 0
-13 -15 0
-13 -16 0
-14 -15 0
-14 -16 0
-15 -16 0
13 14 15 16 0
-17 -18 0
-17 -19 0
-17 -20 0
-18 -19 0
-18 -20 0
-19 -20 0
17 18 19 20 0
-1 -21 0
-1 -22 0
-1 -23 0
-1 -24 0
-1 -25 0
-21 -22 0
-21 -23 0
-21 -24 0
-21 -25 0
-22 -23 0
-22 -24 0
-22 -25 0
-23 -24 0
-23 -25 0
-24 -25 0
1 21 22 23 24 25 0
0
-6 -26 0
-6 -27 0
-6 -28 0
-6 -29 0
-6 -30 0
-26 -27 0
-26 -28 0
-26 -29 0
-26 -30 0
-27 -28 0
-27 -29 0
-27 -30 0
-28 -29 0
-28 -30 0
-29 -30 0
6 26 27 28 29 30 0
-31 -32 0
-31 -33 0
-31 -34 0
-32 -33 0
-32 -34 0
-33 -34 0
31 32 33 34 0
-8 -13 0
-8 -35 0
-8 -36 0
-8 -37 0
-8 -38 0
-8 -39 0
-13 -35 0
-13 -36 0
-13 -37 0
-13 -38 0
-13 -39 0
-35 -36 0
-35 -37 0
-35 -38 0
-35 -39 0
-36 -37 0
-36 -38 0
-36 -39 0
-37 -38 0
-37 -39 0
-38 -39 0
8 13 35 36 37 38 39 0
-14 -26 0
-14 -35 0
-14 -40 0
-14 -41 0
-14 -42 0
-26 -35 0
-26 -40 0
-26 -41 0
-26 -42 0
-35 -40 0
-35 -41 0
-35 -42 0
-40 -41 0
-40 -42 0
-41 -42 0
14 26 35 40 41 42 0
-7 -17 0
-7 -43 0
-17 -43 0
7 17 43 0
-2 -18 0
-2 -44 0
-18 -44 0
2 18 44 0
-3 -9 0
-3 -27 0
-3 -31 0
-3 -45 0
-9 -27 0
-9 -31 0
-9 -45 0
-27 -31 0
-27 -45 0
-31 -45 0
3 9 27 31 45 0
-28 -32 0
-28 -46 0
-32 -46 0
28 32 46 0
-4 -40 0
-4 -47 0
-4 -48 0
-40 -47 0
-40 -48 0
-47 -48 0
4 40 47 48 0
-5 -10 0
-5 -15 0
-5 -36 0
-5 -41 0
-5 -47 0
-5 -49 0
-5 -50 0
-10 -15 0
-10 -36 0
-10 -41 0
-10 -47 0
-10 -49 0
-10 -50 0
-15 -36 0
-15 -41 0
-15 -47 0
-15 -49 0
-15 -50 0
-36 -41 0
-36 -47 0
-36 -49 0
-36 -50 0
-41 -47 0
-41 -49 0
-41 -50 0
-47 -49 0
-47 -50 0
-49 -50 0
5 10 15 36 41 47 49 50 0
-11 -21 0
-11 -33 0
-11 -51 0
-21 -33 0
-21 -51 0
-33 -51 0
11 21 33 51 0
-51 -52 0
-51 -53 0
-52 -53 0
51 52 53 0
-34 -54 0
-34 -55 0
-54 -55 0
34 54 55 0
-43 -52 0
43 52 0
-29 -37 0
-29 -54 0
-37 -54 0
29 37 54 0
-22 -38 0
-22 -42 0
-22 -49 0
-22 -53 0
-38 -42 0
-38 -49 0
-38 -53 0
-42 -49 0
-42 -53 0
-49 -53 0
22 38 42 49 53 0
16 0
-50 -56 0
-50 -57 0
-56 -57 0
50 56 57 0
-23 -58 0
23 58 0
-19 -24 0
-19 -56 0
-19 -59 0
-24 -56 0
-24 -59 0
-56 -59 0
19 24 56 59 0
-12 -20 0
-12 -25 0
-12 -39 0
-12 -44 0
-12 -46 0
-12 -48 0
-12 -57 0
-12 -58 0
-12 -60 0
-20 -25 0
-20 -39 0
-20 -44 0
-20 -46 0
-20 -48 0
-20 -57 0
-20 -58 0
-20 -60 0
-25 -39 0
-25 -44 0
-25 -46 0
-25 -48 0
-25 -57 0
-25 -58 0
-25 -60 0
-39 -44 0
-39 -46 0
-39 -48 0
-39 -57 0
-39 -58 0
-39 -60 0
-44 -46 0
-44 -48 0
-44 -57 0
-44 -58 0
-44 -60 0
-46 -48 0
-46 -57 0
-46 -58 0
-46 -60 0
-48 -57 0
-48 -58 0
-48 -60 0
-57 -58 0
-57 -60 0
-58 -60 0
12 20 25 39 44 46 48 57 58 60 0
-30 -45 0
-30 -55 0
-30 -59 0
-30 -60 0
-45 -55 0
-45 -59 0
-45 -60 0
-55 -59 0
-55 -60 0
-59 -60 0
30 45 55 59 60 0